
Welcome to IBM(R) ILOG(R) CPLEX(R) Interactive Optimizer 22.1.1.0
  with Simplex, Mixed Integer & Barrier Optimizers
5725-A06 5725-A29 5724-Y48 5724-Y49 5724-Y54 5724-Y55 5655-Y21
Copyright IBM Corp. 1988, 2022.  All Rights Reserved.

Type 'help' for a list of available commands.
Type 'help' followed by a command name for more
information on commands.

CPLEX> Selected objective sense:  MINIMIZE
Selected objective  name:  00000000
Selected RHS        name:  RHS1
Selected bound      name:  BOUND
Problem 'ee.mps' read.
Read time = 0.03 sec. (3.17 ticks)
CPLEX> New value for time limit in seconds: 7200
CPLEX> New value for parallel optimization mode: -1
CPLEX> New value for default parallel thread count: 40
CPLEX> New value for mixed integer optimality gap tolerance: 1e-13
CPLEX> Version identifier: 22.1.1.0 | 2022-11-28 | 9160aff4d
CPXPARAM_Threads                                 40
CPXPARAM_Parallel                                -1
CPXPARAM_TimeLimit                               7200
CPXPARAM_MIP_Tolerances_MIPGap                   1e-13
Found incumbent of value 0.000000 after 0.00 sec. (0.31 ticks)
Tried aggregator 2 times.
MIP Presolve eliminated 180 rows and 2745 columns.
MIP Presolve modified 6090 coefficients.
Aggregator did 713 substitutions.
Reduced MIP has 3636 rows, 7835 columns, and 28932 nonzeros.
Reduced MIP has 7835 binaries, 0 generals, 0 SOSs, and 0 indicators.
Presolve time = 0.07 sec. (68.89 ticks)
Probing time = 0.03 sec. (5.79 ticks)
Tried aggregator 1 time.
Detecting symmetries...
Reduced MIP has 3636 rows, 7835 columns, and 28932 nonzeros.
Reduced MIP has 7835 binaries, 0 generals, 0 SOSs, and 0 indicators.
Presolve time = 0.02 sec. (21.99 ticks)
Probing time = 0.02 sec. (5.59 ticks)
Clique table members: 18782.
MIP emphasis: balance optimality and feasibility.
MIP search method: dynamic search.
Parallel mode: opportunistic, using up to 40 threads.
Root relaxation solution time = 0.12 sec. (108.00 ticks)

        Nodes                                         Cuts/
   Node  Left     Objective  IInf  Best Integer    Best Bound    ItCnt     Gap

*     0+    0                            0.0000  -1.54000e+13              --- 
*     0+    0                      -9.38000e+12  -1.54000e+13            64.18%
*     0+    0                      -9.60000e+12  -1.54000e+13            60.42%
*     0+    0                      -1.08000e+13  -1.54000e+13            42.59%
*     0+    0                      -1.17900e+13  -1.54000e+13            30.62%
*     0+    0                      -1.29900e+13  -1.54000e+13            18.55%
*     0+    0                      -1.32000e+13  -1.54000e+13            16.67%
*     0+    0                      -1.44000e+13  -1.54000e+13             6.94%
*     0+    0                      -1.53900e+13  -1.54000e+13             0.06%
      0     0  -1.53900e+13    21  -1.53900e+13  -1.53900e+13     2489    0.00%
*     0+    0                      -1.53900e+13  -1.53900e+13             0.00%
      0     0  -1.53900e+13    51  -1.53900e+13      Cuts: 37     2714    0.00%
*     0+    0                      -1.53900e+13  -1.53900e+13             0.00%
      0     0  -1.53900e+13   156  -1.53900e+13      Cuts: 43     2802    0.00%
*     0+    0                      -1.53900e+13  -1.53900e+13             0.00%
*     0+    0                      -1.53900e+13  -1.53900e+13             0.00%

Repeating presolve.
Tried aggregator 2 times.
MIP Presolve eliminated 1419 rows and 3881 columns.
MIP Presolve modified 16 coefficients.
Aggregator did 1433 substitutions.
Reduced MIP has 784 rows, 2242 columns, and 8380 nonzeros.
Reduced MIP has 2242 binaries, 0 generals, 0 SOSs, and 0 indicators.
Presolve time = 0.04 sec. (40.17 ticks)
Probing fixed 20 vars, tightened 0 bounds.
Probing time = 0.01 sec. (10.12 ticks)
Tried aggregator 1 time.
MIP Presolve eliminated 38 rows and 48 columns.
Reduced MIP has 746 rows, 2188 columns, and 8206 nonzeros.
Reduced MIP has 2188 binaries, 0 generals, 0 SOSs, and 0 indicators.
Presolve time = 0.01 sec. (6.88 ticks)
Probing time = 0.00 sec. (3.44 ticks)
Tried aggregator 1 time.
Detecting symmetries...
Reduced MIP has 746 rows, 2188 columns, and 8206 nonzeros.
Reduced MIP has 2188 binaries, 0 generals, 0 SOSs, and 0 indicators.
Presolve time = 0.01 sec. (6.25 ticks)
Represolve time = 0.10 sec. (85.05 ticks)
Probing time = 0.00 sec. (3.45 ticks)
Clique table members: 5049.
MIP emphasis: balance optimality and feasibility.
MIP search method: dynamic search.
Parallel mode: opportunistic, using up to 40 threads.
Root relaxation solution time = 0.06 sec. (42.58 ticks)

        Nodes                                         Cuts/
   Node  Left     Objective  IInf  Best Integer    Best Bound    ItCnt     Gap

*     0+    0                      -1.53900e+13  -1.53900e+13             0.00%
      0     0  -1.53900e+13   106  -1.53900e+13  -1.53900e+13     3898    0.00%
      0     0  -1.53900e+13   118  -1.53900e+13      Cuts: 56     4111    0.00%
      0     0  -1.53900e+13   140  -1.53900e+13      Cuts: 48     4188    0.00%
*     0+    0                      -1.53900e+13  -1.53900e+13             0.00%
      0     2  -1.53900e+13   128  -1.53900e+13  -1.53900e+13     4188    0.00%
Elapsed time = 1.77 sec. (1119.33 ticks, tree = 0.02 MB, solutions = 16)
   1885   188        cutoff        -1.53900e+13  -1.53900e+13    85350    0.00%
   3022   307        cutoff        -1.53900e+13  -1.53900e+13   165700    0.00%
   4131   259  -1.53900e+13    35  -1.53900e+13  -1.53900e+13   363288    0.00%
   5149   106  -1.53900e+13    85  -1.53900e+13  -1.53900e+13   442691    0.00%
   5962   237  -1.53900e+13   108  -1.53900e+13  -1.53900e+13   396800    0.00%
   6575    76        cutoff        -1.53900e+13  -1.53900e+13   474142    0.00%
   6850    26  -1.53900e+13    57  -1.53900e+13  -1.53900e+13   578258    0.00%

GUB cover cuts applied:  2
Clique cuts applied:  21
Cover cuts applied:  941
Flow cuts applied:  1
Mixed integer rounding cuts applied:  1
Zero-half cuts applied:  7
Lift and project cuts applied:  12
Gomory fractional cuts applied:  16

Root node processing (before b&c):
  Real time             =    1.54 sec. (1120.66 ticks)
Parallel b&c, 40 threads:
  Real time             =    2.62 sec. (1699.87 ticks)
  Sync time (average)   =    0.89 sec.
  Wait time (average)   =    0.00 sec.
                          ------------
Total (root+branch&cut) =    4.16 sec. (2820.53 ticks)

Solution pool: 27 solutions saved.

MIP - Integer optimal solution:  Objective = -1.5389999988e+13
Solution time =    4.25 sec.  Iterations = 606277  Nodes = 6855
Deterministic time = 2820.56 ticks  (663.50 ticks/sec)

CPLEX> Solution 'p28' written to file 'ee.sol'.
CPLEX> 